c CNF file corresponding to a (partial) station packing problem.
p cnf 7053 229
1 2 3 4 5 6 7 8 9 10 11 12 13 14 0
-1 -2 0
-1 -3 0
-1 -4 0
-1 -5 0
-1 -6 0
-1 -7 0
-1 -8 0
-1 -9 0
-1 -10 0
-1 -11 0
-1 -12 0
-1 -13 0
-1 -14 0
-2 -3 0
-2 -4 0
-2 -5 0
-2 -6 0
-2 -7 0
-2 -8 0
-2 -9 0
-2 -10 0
-2 -11 0
-2 -12 0
-2 -13 0
-2 -14 0
-3 -4 0
-3 -5 0
-3 -6 0
-3 -7 0
-3 -8 0
-3 -9 0
-3 -10 0
-3 -11 0
-3 -12 0
-3 -13 0
-3 -14 0
-4 -5 0
-4 -6 0
-4 -7 0
-4 -8 0
-4 -9 0
-4 -10 0
-4 -11 0
-4 -12 0
-4 -13 0
-4 -14 0
-5 -6 0
-5 -7 0
-5 -8 0
-5 -9 0
-5 -10 0
-5 -11 0
-5 -12 0
-5 -13 0
-5 -14 0
-6 -7 0
-6 -8 0
-6 -9 0
-6 -10 0
-6 -11 0
-6 -12 0
-6 -13 0
-6 -14 0
-7 -8 0
-7 -9 0
-7 -10 0
-7 -11 0
-7 -12 0
-7 -13 0
-7 -14 0
-8 -9 0
-8 -10 0
-8 -11 0
-8 -12 0
-8 -13 0
-8 -14 0
-9 -10 0
-9 -11 0
-9 -12 0
-9 -13 0
-9 -14 0
-10 -11 0
-10 -12 0
-10 -13 0
-10 -14 0
-11 -12 0
-11 -13 0
-11 -14 0
-12 -13 0
-12 -14 0
-13 -14 0
7037 7038 7039 7040 7041 7042 7043 7044 7045 7046 7047 7048 7049 7050 7051 7052 7053 0
-7037 -7038 0
-7037 -7039 0
-7037 -7040 0
-7037 -7041 0
-7037 -7042 0
-7037 -7043 0
-7037 -7044 0
-7037 -7045 0
-7037 -7046 0
-7037 -7047 0
-7037 -7048 0
-7037 -7049 0
-7037 -7050 0
-7037 -7051 0
-7037 -7052 0
-7037 -7053 0
-7038 -7039 0
-7038 -7040 0
-7038 -7041 0
-7038 -7042 0
-7038 -7043 0
-7038 -7044 0
-7038 -7045 0
-7038 -7046 0
-7038 -7047 0
-7038 -7048 0
-7038 -7049 0
-7038 -7050 0
-7038 -7051 0
-7038 -7052 0
-7038 -7053 0
-7039 -7040 0
-7039 -7041 0
-7039 -7042 0
-7039 -7043 0
-7039 -7044 0
-7039 -7045 0
-7039 -7046 0
-7039 -7047 0
-7039 -7048 0
-7039 -7049 0
-7039 -7050 0
-7039 -7051 0
-7039 -7052 0
-7039 -7053 0
-7040 -7041 0
-7040 -7042 0
-7040 -7043 0
-7040 -7044 0
-7040 -7045 0
-7040 -7046 0
-7040 -7047 0
-7040 -7048 0
-7040 -7049 0
-7040 -7050 0
-7040 -7051 0
-7040 -7052 0
-7040 -7053 0
-7041 -7042 0
-7041 -7043 0
-7041 -7044 0
-7041 -7045 0
-7041 -7046 0
-7041 -7047 0
-7041 -7048 0
-7041 -7049 0
-7041 -7050 0
-7041 -7051 0
-7041 -7052 0
-7041 -7053 0
-7042 -7043 0
-7042 -7044 0
-7042 -7045 0
-7042 -7046 0
-7042 -7047 0
-7042 -7048 0
-7042 -7049 0
-7042 -7050 0
-7042 -7051 0
-7042 -7052 0
-7042 -7053 0
-7043 -7044 0
-7043 -7045 0
-7043 -7046 0
-7043 -7047 0
-7043 -7048 0
-7043 -7049 0
-7043 -7050 0
-7043 -7051 0
-7043 -7052 0
-7043 -7053 0
-7044 -7045 0
-7044 -7046 0
-7044 -7047 0
-7044 -7048 0
-7044 -7049 0
-7044 -7050 0
-7044 -7051 0
-7044 -7052 0
-7044 -7053 0
-7045 -7046 0
-7045 -7047 0
-7045 -7048 0
-7045 -7049 0
-7045 -7050 0
-7045 -7051 0
-7045 -7052 0
-7045 -7053 0
-7046 -7047 0
-7046 -7048 0
-7046 -7049 0
-7046 -7050 0
-7046 -7051 0
-7046 -7052 0
-7046 -7053 0
-7047 -7048 0
-7047 -7049 0
-7047 -7050 0
-7047 -7051 0
-7047 -7052 0
-7047 -7053 0
-7048 -7049 0
-7048 -7050 0
-7048 -7051 0
-7048 -7052 0
-7048 -7053 0
-7049 -7050 0
-7049 -7051 0
-7049 -7052 0
-7049 -7053 0
-7050 -7051 0
-7050 -7052 0
-7050 -7053 0
-7051 -7052 0
-7051 -7053 0
-7052 -7053 0
